0 9969.54
1 9917.20
2 9799.14
3 9799.14
4 9739.77
5 9739.77
6 9739.77
7 9739.77
8 9634.55
9 9546.71
10 9470.29
11 9411.94
12 9292.65
13 9267.10
14 9202.69
15 9173.00
16 9061.49
17 9061.49
18 8870.50
19 8870.50
20 8870.50
21 8852.16
22 8852.16
23 8852.16
24 8852.16
25 8852.16
26 8852.16
27 8845.83
28 8845.83
29 8845.83
30 8845.83
31 8656.39
32 8656.39
33 8634.31
34 8634.31
35 8634.31
36 8542.40
37 8542.40
38 8450.82
39 8450.82
40 8450.82
41 8450.82
42 8448.32
43 8431.79
44 8224.64
45 8224.47
46 8224.47
47 8224.47
48 8224.47
49 8224.47
50 8224.47
51 8224.47
52 8224.47
53 8154.36
54 8154.36
55 8154.36
56 8154.36
57 8131.15
58 8131.15
59 8098.25
60 8098.25
61 8098.25
62 8098.25
63 8098.25
64 8098.25
65 8098.25
66 8098.25
67 8098.25
68 8098.25
69 8098.25
70 8089.60
71 8089.60
72 8089.60
73 8089.60
74 7952.29
75 7952.29
76 7952.29
77 7952.29
78 7941.72
79 7941.72
80 7941.72
81 7941.72
82 7941.72
83 7941.72
84 7941.72
85 7893.30
86 7893.30
87 7882.18
88 7882.18
89 7882.18
90 7882.18
91 7866.30
92 7846.04
93 7846.04
94 7846.04
95 7846.04
96 7846.04
97 7694.95
98 7694.95
99 7694.95
100 7694.95
101 7680.18
102 7680.18
103 7680.18
104 7680.18
105 7680.18
106 7680.18
107 7680.18
108 7680.18
109 7680.18
110 7679.79
111 7649.56
112 7649.56
113 7649.56
114 7649.56
115 7649.56
116 7649.56
117 7647.76
118 7647.76
119 7647.76
120 7647.76
121 7645.46
122 7645.46
123 7645.46
124 7638.85
125 7571.42
126 7571.42
127 7571.42
128 7571.42
129 7571.42
130 7571.42
131 7557.27
132 7557.27
133 7557.27
134 7557.27
135 7497.89
136 7497.89
137 7497.89
138 7497.89
139 7497.89
140 7497.89
141 7497.89
142 7497.89
143 7497.89
144 7497.89
145 7497.89
146 7497.89
147 7497.89
148 7497.89
149 7497.89
150 7497.89
151 7497.89
152 7497.89
153 7497.89
154 7497.89
155 7382.56
156 7382.56
157 7382.56
158 7382.56
159 7382.56
160 7382.56
161 7382.56
162 7382.56
163 7382.56
164 7382.56
165 7382.56
166 7382.56
167 7330.96
168 7330.96
169 7330.96
170 7330.96
171 7330.96
172 7330.96
173 7330.96
174 7330.96
175 7330.96
176 7330.96
177 7330.96
178 7330.96
179 7330.96
180 7330.96
181 7330.96
182 7330.96
183 7330.96
184 7238.19
185 7238.19
186 7238.19
187 7238.19
188 7238.19
189 7238.19
190 7238.19
191 7238.19
192 7238.19
193 7238.19
194 7238.19
195 7238.19
196 7238.19
197 7238.19
198 7234.72
199 7231.40
200 7231.40
201 7231.40
202 7231.40
203 7231.40
204 7231.40
205 7231.40
206 7231.40
207 7231.40
208 7217.98
209 7217.98
210 7217.98
211 7217.98
212 7217.98
213 7203.84
214 7203.84
215 7203.84
216 7203.84
217 7203.84
218 7203.84
219 7203.84
220 7203.84
221 7203.84
222 7203.84
223 7203.84
224 7203.84
225 7203.84
226 7174.83
227 7174.83
228 7174.83
229 7174.83
230 7174.83
231 7174.83
232 7174.83
233 7174.83
234 7174.83
235 7174.83
236 7174.83
237 7174.83
238 7174.83
239 7174.83
240 7174.83
241 7174.83
242 7174.83
243 7115.87
244 7115.87
245 7115.87
246 7115.87
247 7115.87
248 7115.87
249 7115.87
250 7115.87
251 7115.87
252 7115.87
253 7106.14
254 7106.14
255 7106.14
256 7106.14
257 7106.14
258 7106.14
259 7106.14
260 7106.14
261 7106.14
262 7106.14
263 7106.14
264 7106.14
265 7106.14
266 7069.14
267 7052.02
268 7052.02
269 7047.43
270 7012.48
271 7012.48
272 7012.48
273 7012.48
274 7012.48
275 7012.48
276 7012.48
277 7012.48
278 7012.48
279 7012.48
280 7012.48
281 7012.48
282 7012.48
283 7012.48
284 7012.48
285 7003.76
286 7003.76
287 7003.76
288 7003.76
289 7003.76
290 7003.76
291 7003.76
292 7003.76
293 7003.76
294 7003.76
295 7003.76
296 7003.76
297 7003.76
298 7003.76
299 7003.76
300 6993.74
301 6981.95
302 6981.95
303 6981.95
304 6981.95
305 6972.68
306 6972.68
307 6972.68
308 6972.68
309 6972.68
310 6968.19
311 6968.19
312 6968.19
313 6968.19
314 6968.19
315 6968.19
316 6968.19
317 6968.19
318 6968.19
319 6968.19
320 6968.19
321 6968.19
322 6968.19
323 6968.19
324 6968.19
325 6945.69
326 6945.69
327 6945.69
328 6945.69
329 6945.69
330 6945.69
331 6945.69
332 6939.60
333 6939.60
334 6939.60
335 6939.60
336 6939.60
337 6939.60
338 6939.60
339 6939.60
340 6939.60
341 6939.60
342 6939.60
343 6939.60
344 6921.99
345 6921.99
346 6921.99
347 6921.99
348 6921.99
349 6921.99
350 6921.99
351 6921.99
352 6921.99
353 6921.99
354 6921.99
355 6921.99
356 6921.99
357 6815.27
358 6815.27
359 6815.27
360 6815.27
361 6815.27
362 6815.27
363 6815.27
364 6815.27
365 6815.27
366 6815.27
367 6815.27
368 6815.27
369 6815.27
370 6815.27
371 6815.27
372 6815.27
373 6815.27
374 6815.27
375 6815.27
376 6815.27
377 6815.27
378 6815.27
379 6815.27
380 6815.27
381 6815.27
382 6815.27
383 6815.27
384 6815.27
385 6815.27
386 6745.44
387 6745.44
388 6745.44
389 6745.44
390 6745.44
391 6745.44
392 6745.44
393 6745.44
394 6745.44
395 6745.44
396 6745.44
397 6745.44
398 6745.44
399 6745.44
400 6745.44
401 6745.44
402 6745.44
403 6745.44
404 6745.44
405 6745.44
406 6745.44
407 6745.44
408 6745.44
409 6745.44
410 6745.44
411 6745.44
412 6745.44
413 6745.44
414 6745.44
415 6710.56
416 6710.56
417 6710.56
418 6710.56
419 6710.56
420 6710.56
421 6710.56
422 6710.56
423 6710.56
424 6710.56
425 6710.56
426 6710.56
427 6710.56
428 6710.56
429 6710.56
430 6710.56
431 6710.56
432 6710.56
433 6710.56
434 6710.56
435 6710.56
436 6710.56
437 6710.56
438 6710.56
439 6710.56
440 6710.56
441 6710.56
442 6710.56
443 6710.56
444 6710.56
445 6710.56
446 6704.54
447 6704.54
448 6704.54
449 6704.54
450 6691.35
451 6691.35
452 6691.35
453 6673.32
454 6673.32
455 6673.32
456 6673.32
457 6667.81
458 6667.81
459 6667.81
460 6667.81
461 6667.81
462 6667.81
463 6667.81
464 6667.81
465 6667.81
466 6667.81
467 6667.81
468 6667.81
469 6667.81
470 6667.81
471 6667.81
472 6667.81
473 6667.81
474 6667.81
475 6667.81
476 6667.81
477 6667.81
478 6667.81
479 6667.81
480 6667.81
481 6667.81
482 6667.81
483 6654.71
484 6654.71
485 6654.71
486 6654.71
487 6654.71
488 6654.71
489 6654.71
490 6654.71
491 6654.71
492 6654.71
493 6654.71
494 6654.71
495 6654.71
496 6654.71
497 6654.71
498 6654.71
499 6654.71
500 6654.71
501 6654.71
502 6654.71
503 6654.71
504 6654.71
505 6654.71
506 6654.71
507 6627.78
508 6627.78
509 6627.78
510 6627.78
511 6627.78
512 6627.78
513 6627.78
514 6627.78
515 6627.78
516 6627.78
517 6627.78
518 6627.78
519 6627.78
520 6627.78
521 6627.78
522 6627.78
523 6627.78
524 6627.78
525 6627.78
526 6627.78
527 6627.78
528 6627.78
529 6627.78
530 6572.62
531 6572.62
532 6572.62
533 6572.62
534 6572.62
535 6572.62
536 6572.62
537 6572.62
538 6572.62
539 6572.62
540 6572.62
541 6572.62
542 6572.62
543 6572.62
544 6572.62
545 6572.62
546 6572.62
547 6572.62
548 6572.62
549 6572.62
550 6572.62
551 6572.62
552 6572.62
553 6572.62
554 6572.62
555 6572.62
556 6572.62
557 6572.62
558 6572.62
559 6572.62
560 6572.62
561 6572.62
562 6572.62
563 6572.62
564 6572.62
565 6572.62
566 6572.62
567 6572.62
568 6572.62
569 6572.62
570 6572.62
571 6572.62
572 6572.62
573 6572.62
574 6572.62
575 6572.62
576 6572.62
577 6572.62
578 6572.62
579 6572.62
580 6572.62
581 6572.62
582 6572.62
583 6572.62
584 6572.62
585 6572.62
586 6572.62
587 6572.62
588 6572.62
589 6572.62
590 6572.62
591 6572.62
592 6572.62
593 6572.62
594 6572.62
595 6572.62
596 6572.62
597 6572.62
598 6572.62
599 6572.62
600 6572.62
601 6572.62
602 6572.62
603 6572.62
604 6572.62
605 6572.62
606 6572.62
607 6572.62
608 6572.62
609 6572.62
610 6572.62
611 6540.25
612 6540.25
613 6540.25
614 6529.56
615 6529.56
616 6529.56
617 6529.56
618 6529.56
619 6529.56
620 6529.56
621 6529.56
622 6522.72
623 6522.72
624 6522.72
625 6522.72
626 6522.72
627 6522.72
628 6522.72
629 6522.72
630 6495.91
631 6495.91
632 6495.91
633 6495.91
634 6495.91
635 6495.91
636 6495.91
637 6495.91
638 6495.91
639 6471.02
640 6471.02
641 6471.02
642 6471.02
643 6471.02
644 6471.02
645 6471.02
646 6471.02
647 6471.02
648 6471.02
649 6471.02
650 6471.02
651 6471.02
652 6471.02
653 6471.02
654 6471.02
655 6471.02
656 6471.02
657 6471.02
658 6471.02
659 6471.02
660 6471.02
661 6471.02
662 6471.02
663 6471.02
664 6471.02
665 6471.02
666 6471.02
667 6471.02
668 6471.02
669 6471.02
670 6471.02
671 6471.02
672 6471.02
673 6471.02
674 6471.02
675 6471.02
676 6471.02
677 6471.02
678 6471.02
679 6468.27
680 6468.27
681 6468.27
682 6468.27
683 6468.27
684 6468.27
685 6468.27
686 6468.27
687 6468.27
688 6468.27
689 6468.27
690 6465.52
691 6465.52
692 6465.52
693 6465.52
694 6465.52
695 6465.52
696 6465.52
697 6465.52
698 6465.52
699 6465.52
700 6465.52
701 6465.52
702 6465.52
703 6465.52
704 6465.52
705 6465.52
706 6465.52
707 6465.52
708 6465.52
709 6465.52
710 6465.52
711 6465.52
712 6465.52
713 6465.52
714 6465.52
715 6465.52
716 6465.52
717 6465.52
718 6465.52
719 6465.52
720 6465.52
721 6465.52
722 6465.52
723 6465.52
724 6465.52
725 6465.52
726 6465.52
727 6465.52
728 6465.52
729 6465.52
730 6465.52
731 6465.52
732 6465.52
733 6465.52
734 6465.52
735 6465.52
736 6465.52
737 6465.52
738 6455.46
739 6455.46
740 6455.46
741 6455.46
742 6455.46
743 6455.46
744 6455.46
745 6455.46
746 6455.46
747 6455.46
748 6455.46
749 6455.46
750 6455.46
751 6455.46
752 6455.46
753 6455.46
754 6455.46
755 6455.46
756 6455.46
757 6455.46
758 6445.66
759 6445.66
760 6445.66
761 6445.66
762 6445.66
763 6445.66
764 6445.66
765 6445.66
766 6445.66
767 6445.66
768 6445.66
769 6440.51
770 6440.51
771 6440.51
772 6440.51
773 6440.51
774 6440.43
775 6440.43
776 6440.43
777 6440.43
778 6440.43
779 6440.43
780 6440.43
781 6440.43
782 6440.43
783 6440.43
784 6440.43
785 6440.43
786 6440.43
787 6440.43
788 6440.43
789 6440.43
790 6440.43
791 6440.43
792 6440.43
793 6440.43
794 6440.43
795 6440.43
796 6424.85
797 6424.85
798 6424.85
799 6424.85
800 6424.85
801 6424.85
802 6424.85
803 6424.85
804 6424.85
805 6424.85
806 6424.85
807 6424.85
808 6424.85
809 6424.85
810 6424.85
811 6424.85
812 6424.85
813 6424.85
814 6424.85
815 6424.85
816 6424.85
817 6424.85
818 6424.85
819 6424.85
820 6424.85
821 6424.85
822 6424.85
823 6424.85
824 6424.85
825 6424.85
826 6424.85
827 6424.85
828 6424.85
829 6424.85
830 6424.85
831 6423.45
832 6423.45
833 6423.45
834 6423.45
835 6423.45
836 6423.45
837 6423.45
838 6423.45
839 6423.45
840 6423.45
841 6423.45
842 6423.45
843 6423.45
844 6423.45
845 6423.45
846 6423.45
847 6423.45
848 6423.45
849 6423.45
850 6423.45
851 6423.45
852 6423.45
853 6423.45
854 6423.45
855 6423.45
856 6423.45
857 6423.45
858 6423.45
859 6423.45
860 6423.45
861 6423.45
862 6423.45
863 6423.45
864 6423.45
865 6380.37
866 6380.37
867 6380.37
868 6380.37
869 6380.37
870 6380.37
871 6380.37
872 6380.37
873 6380.37
874 6380.37
875 6380.37
876 6380.37
877 6380.37
878 6380.37
879 6380.37
880 6380.37
881 6380.37
882 6380.37
883 6380.37
884 6380.37
885 6380.37
886 6380.37
887 6380.37
888 6380.37
889 6380.37
890 6380.37
891 6380.37
892 6380.37
893 6380.37
894 6380.37
895 6380.37
896 6380.37
897 6380.37
898 6380.37
899 6380.37
900 6380.37
901 6380.37
902 6380.37
903 6380.37
904 6380.37
905 6380.37
906 6380.37
907 6380.37
908 6380.37
909 6380.37
910 6380.37
911 6380.37
912 6380.37
913 6380.37
914 6380.37
915 6380.37
916 6380.37
917 6380.37
918 6380.37
919 6380.37
920 6380.37
921 6380.37
922 6380.37
923 6380.37
924 6380.37
925 6380.37
926 6380.37
927 6380.37
928 6380.37
929 6380.37
930 6380.37
931 6380.37
932 6380.37
933 6380.37
934 6380.37
935 6380.37
936 6380.37
937 6380.37
938 6380.37
939 6378.44
940 6378.44
941 6378.44
942 6332.10
943 6332.10
944 6332.10
945 6332.10
946 6332.10
947 6332.10
948 6316.46
949 6316.46
950 6316.46
951 6316.46
952 6264.92
953 6264.92
954 6264.92
955 6264.92
956 6264.92
957 6264.92
958 6264.92
959 6264.92
960 6264.92
961 6264.92
962 6264.92
963 6264.92
964 6264.92
965 6264.92
966 6264.92
967 6264.92
968 6264.92
969 6264.92
970 6264.92
971 6264.92
972 6264.92
973 6264.92
974 6264.92
975 6264.92
976 6264.92
977 6264.92
978 6264.92
979 6256.28
980 6256.28
981 6256.28
982 6256.28
983 6256.28
984 6256.28
985 6256.28
986 6256.28
987 6256.28
988 6256.28
989 6256.28
990 6256.28
991 6256.28
992 6256.28
993 6256.28
994 6256.28
995 6256.28
996 6256.28
997 6256.28
998 6256.28
999 6256.28
26 7 4 0 0 0 